 &CONTROL
 calculation = 'scf'
 title = 'CsV3Sb5'
 restart_mode = 'from_scratch'
 outdir = './outdir'
 prefix = 'CsV3Sb5'
 wf_collect = .true.
 pseudo_dir = './'
 etot_conv_thr = 1.0D-6
 forc_conv_thr = 1.0D-6
 tstress = .false.
 tprnfor = .false.
 /
 &SYSTEM
 ibrav = 0
 nat=           9
 ntyp=          3
 ecutwfc = 44
 ecutrho = 350
 occupations = 'smearing'
 degauss = 0.001
 smearing = 'gaussian'
 /
 &electrons
    mixing_mode = 'plain'
    mixing_beta = 0.3
    conv_thr =  1.0d-6
    mixing_fixed_ns = 0
    diagonalization = 'david'
 /
  &IONS
 ion_dynamics = 'bfgs'
 pot_extrapolation = 'second_order'
 wfc_extrapolation = 'second_order'
 /
 &CELL
 cell_dynamics = 'bfgs'
 press_conv_thr = 0.1
 /
 ATOMIC_SPECIES
 Cs 132.90545   Cs.pbe-spn-kjpaw_psl.1.0.0.UPF
 V  50.9415    V.pbe-spnl-kjpaw_psl.1.0.0.UPF
 Sb 121.76    Sb.pbe-n-kjpaw_psl.1.0.0.UPF
 
 K_POINTS {automatic}
   6   6   3   0    0    0 

 CELL_PARAMETERS (angstrom)
   20.0000000000    0.0000000000      0.0000000000    
   -10.0000000000  -17.320508076      0.0000000000
    0.0000000000    0.0000000000     20.0000000000

ATOMIC_POSITIONS (crystal)
Cs            0.0000000000        0.0000000000       -0.0000000000
V             0.5000000000        0.5000000000        0.5000000000
V             0.0000000000        0.5000000000        0.5000000000
V             0.5000000000        0.0000000000        0.5000000000
Sb            0.0000000000       -0.0000000000        0.5000000000
Sb            0.6666665892        0.3333328264        0.7429809932
Sb            0.3333334108        0.6666671736        0.2570190068
Sb            0.3333328264        0.6666665892        0.7429809932
Sb            0.6666671736        0.3333334108        0.2570190068


